(declare-const delta_i Int)
(declare-const delta_j Int)
(assert (exists
         ((|S1,0?1| Real) (|j'?2| Int) (KSUM1?3 Int) (|K1,0?4| Int) (K?5 Int)
            (|j'?6| Int) (|i'?7| Int) (n?8 Int) (i?9 Int) (m?10 Int)
            (j?11 Int))
         (and (<= (- i?9) 0) (<= (- j?11) 0) (< (+ (- n?8) i?9) 0)
                (<= (- K?5) 0) (<= (- |K1,0?4|) 0) (= (+ |K1,0?4| (- K?5)) 0)
                (<= (+ KSUM1?3 (- K?5)) 0)
                (= (+ (- |S1,0?1|) |j'?2| (- |K1,0?4|)) 0)
                (= (+ (- KSUM1?3) |K1,0?4|) 0) (= |S1,0?1| 0)
                (or (and (= K?5 0) (= (- |j'?2|) 0))
                      (and (<= (+ (- K?5) 1) 0) (<= (+ (- m?10) 1) 0)
                             (<= (+ (- m?10) |j'?2|) 0)
                             (<= (+ (- |j'?2|) 1) 0)))
                (= (+ |j'?2| (- K?5)) 0) (<= (- K?5) 0) (<= (- |j'?2|) 0)
                (<= (+ m?10 (- |j'?2|)) 0) (= (+ |j'?6| (- |j'?2|)) 0)
                (= (+ |i'?7| (- i?9) -1) 0) (= delta_i (+ |i'?7| (- i?9)))
                (= delta_j (+ |j'?6| (- j?11))))))
(check-sat)
